(set-logic QF_S)
(declare-fun var0 () String)
(declare-fun var1 () Int)
(declare-fun var2 () String)
(declare-fun var3 () Int)
(declare-fun var4 () String)
(declare-fun var5 () String)
(declare-fun var6 () Int)
(declare-fun var7 () Int)
(declare-fun var8 () Bool)
(assert (str.suffixof (str.at var0 var1) (str.substr (str.at var2 var3) (str.len var4) (str.len var5))))
(assert (< var6 var7))
(assert (< var7 var3))
(assert (not var8))
(check-sat)